certificates/rado_a11_c246_N29.drat
-24 22 -28 0
22 -28 -29 0
-22 -29 0
-29 0
22 0
-18 0
-26 0
21 28 0
-21 0
6 0
11 0
3 0
14 0
28 0
-2 0
-24 0
-10 0
-7 0
-15 0
20 0
17 0
8 0
9 0
25 0
-16 0
-13 0
-4 0
-12 0
-5 0
23 0
1 0
19 0
27 0
0
